WARNING: for repeatability, setting FPU to use double precision
============================[ Problem Statistics ]=============================
|                                                                             |
|  Number of variables:            50                                         |
|  Number of clauses:             218                                         |
|  Parse time:                   0.00 s                                       |
|                                                                             |
============================[ Search Statistics ]==============================
| Conflicts |          ORIGINAL         |          LEARNT          | Progress |
|           |    Vars  Clauses Literals |    Limit  Clauses Lit/Cl |          |
===============================================================================
===============================================================================
restarts              : 1
conflicts             : 63             (297170 /sec)
decisions             : 78             (0.00 % random) (367925 /sec)
propagations          : 921            (4344340 /sec)
conflict literals     : 210            (19.23 % deleted)
Memory used           : 20.00 MB
CPU time              : 0.000212 s

UNSATISFIABLE
